\* JobShop *\
Minimize
OBJ: Cmax
Subject To
('makespan',_'J1'): - Cmax + X_('J1',_'M7') <= -12
('makespan',_'J2'): - Cmax + X_('J2',_'M1') <= -16
('makespan',_'J3'): - Cmax + X_('J3',_'M4') <= -14
('makespan',_'J4'): - Cmax + X_('J4',_'M6') <= -15
('makespan',_'J5'): - Cmax + X_('J5',_'M2') <= -15
_C1: X_('J1',_'M1') - X_('J2',_'M1') + 100000 Y_('J1',_'J2',_'M1') <= 99988
_C10: X_('J1',_'M1') - X_('J2',_'M1') - 100000 Y_('J2',_'J1',_'M1') <= -12
_C100: X_('J2',_'M3') - X_('J3',_'M3') - 100000 Y_('J3',_'J2',_'M3') <= -6
_C101: X_('J3',_'M3') - X_('J4',_'M3') + 100000 Y_('J3',_'J4',_'M3') <= 99988
_C102: - X_('J3',_'M3') + X_('J4',_'M3') - 100000 Y_('J3',_'J4',_'M3') <= 0
_C103: X_('J3',_'M3') - X_('J5',_'M3') + 100000 Y_('J3',_'J5',_'M3') <= 99988
_C104: - X_('J3',_'M3') + X_('J5',_'M3') - 100000 Y_('J3',_'J5',_'M3') <= -19
_C105: - X_('J1',_'M3') + X_('J4',_'M3') + 100000 Y_('J4',_'J1',_'M3')
 <= 100000
_C106: X_('J1',_'M3') - X_('J4',_'M3') - 100000 Y_('J4',_'J1',_'M3') <= 0
_C107: - X_('J2',_'M3') + X_('J4',_'M3') + 100000 Y_('J4',_'J2',_'M3')
 <= 100000
_C108: X_('J2',_'M3') - X_('J4',_'M3') - 100000 Y_('J4',_'J2',_'M3') <= -6
_C109: - X_('J3',_'M3') + X_('J4',_'M3') + 100000 Y_('J4',_'J3',_'M3')
 <= 100000
_C11: X_('J2',_'M1') - X_('J3',_'M1') + 100000 Y_('J2',_'J3',_'M1') <= 99984
_C110: X_('J3',_'M3') - X_('J4',_'M3') - 100000 Y_('J4',_'J3',_'M3') <= -12
_C111: X_('J4',_'M3') - X_('J5',_'M3') + 100000 Y_('J4',_'J5',_'M3') <= 100000
_C112: - X_('J4',_'M3') + X_('J5',_'M3') - 100000 Y_('J4',_'J5',_'M3') <= -19
_C113: - X_('J1',_'M3') + X_('J5',_'M3') + 100000 Y_('J5',_'J1',_'M3')
 <= 99981
_C114: X_('J1',_'M3') - X_('J5',_'M3') - 100000 Y_('J5',_'J1',_'M3') <= 0
_C115: - X_('J2',_'M3') + X_('J5',_'M3') + 100000 Y_('J5',_'J2',_'M3')
 <= 99981
_C116: X_('J2',_'M3') - X_('J5',_'M3') - 100000 Y_('J5',_'J2',_'M3') <= -6
_C117: - X_('J3',_'M3') + X_('J5',_'M3') + 100000 Y_('J5',_'J3',_'M3')
 <= 99981
_C118: X_('J3',_'M3') - X_('J5',_'M3') - 100000 Y_('J5',_'J3',_'M3') <= -12
_C119: - X_('J4',_'M3') + X_('J5',_'M3') + 100000 Y_('J5',_'J4',_'M3')
 <= 99981
_C12: - X_('J2',_'M1') + X_('J3',_'M1') - 100000 Y_('J2',_'J3',_'M1') <= -3
_C120: X_('J4',_'M3') - X_('J5',_'M3') - 100000 Y_('J5',_'J4',_'M3') <= 0
_C121: X_('J1',_'M4') - X_('J2',_'M4') + 100000 Y_('J1',_'J2',_'M4') <= 99982
_C122: - X_('J1',_'M4') + X_('J2',_'M4') - 100000 Y_('J1',_'J2',_'M4') <= 0
_C123: X_('J1',_'M4') - X_('J3',_'M4') + 100000 Y_('J1',_'J3',_'M4') <= 99982
_C124: - X_('J1',_'M4') + X_('J3',_'M4') - 100000 Y_('J1',_'J3',_'M4') <= -14
_C125: X_('J1',_'M4') - X_('J4',_'M4') + 100000 Y_('J1',_'J4',_'M4') <= 99982
_C126: - X_('J1',_'M4') + X_('J4',_'M4') - 100000 Y_('J1',_'J4',_'M4') <= -8
_C127: X_('J1',_'M4') - X_('J5',_'M4') + 100000 Y_('J1',_'J5',_'M4') <= 99982
_C128: - X_('J1',_'M4') + X_('J5',_'M4') - 100000 Y_('J1',_'J5',_'M4') <= -6
_C129: - X_('J1',_'M4') + X_('J2',_'M4') + 100000 Y_('J2',_'J1',_'M4')
 <= 100000
_C13: X_('J2',_'M1') - X_('J4',_'M1') + 100000 Y_('J2',_'J4',_'M1') <= 99984
_C130: X_('J1',_'M4') - X_('J2',_'M4') - 100000 Y_('J2',_'J1',_'M4') <= -18
_C131: X_('J2',_'M4') - X_('J3',_'M4') + 100000 Y_('J2',_'J3',_'M4') <= 100000
_C132: - X_('J2',_'M4') + X_('J3',_'M4') - 100000 Y_('J2',_'J3',_'M4') <= -14
_C133: X_('J2',_'M4') - X_('J4',_'M4') + 100000 Y_('J2',_'J4',_'M4') <= 100000
_C134: - X_('J2',_'M4') + X_('J4',_'M4') - 100000 Y_('J2',_'J4',_'M4') <= -8
_C135: X_('J2',_'M4') - X_('J5',_'M4') + 100000 Y_('J2',_'J5',_'M4') <= 100000
_C136: - X_('J2',_'M4') + X_('J5',_'M4') - 100000 Y_('J2',_'J5',_'M4') <= -6
_C137: - X_('J1',_'M4') + X_('J3',_'M4') + 100000 Y_('J3',_'J1',_'M4')
 <= 99986
_C138: X_('J1',_'M4') - X_('J3',_'M4') - 100000 Y_('J3',_'J1',_'M4') <= -18
_C139: - X_('J2',_'M4') + X_('J3',_'M4') + 100000 Y_('J3',_'J2',_'M4')
 <= 99986
_C14: - X_('J2',_'M1') + X_('J4',_'M1') - 100000 Y_('J2',_'J4',_'M1') <= -15
_C140: X_('J2',_'M4') - X_('J3',_'M4') - 100000 Y_('J3',_'J2',_'M4') <= 0
_C141: X_('J3',_'M4') - X_('J4',_'M4') + 100000 Y_('J3',_'J4',_'M4') <= 99986
_C142: - X_('J3',_'M4') + X_('J4',_'M4') - 100000 Y_('J3',_'J4',_'M4') <= -8
_C143: X_('J3',_'M4') - X_('J5',_'M4') + 100000 Y_('J3',_'J5',_'M4') <= 99986
_C144: - X_('J3',_'M4') + X_('J5',_'M4') - 100000 Y_('J3',_'J5',_'M4') <= -6
_C145: - X_('J1',_'M4') + X_('J4',_'M4') + 100000 Y_('J4',_'J1',_'M4')
 <= 99992
_C146: X_('J1',_'M4') - X_('J4',_'M4') - 100000 Y_('J4',_'J1',_'M4') <= -18
_C147: - X_('J2',_'M4') + X_('J4',_'M4') + 100000 Y_('J4',_'J2',_'M4')
 <= 99992
_C148: X_('J2',_'M4') - X_('J4',_'M4') - 100000 Y_('J4',_'J2',_'M4') <= 0
_C149: - X_('J3',_'M4') + X_('J4',_'M4') + 100000 Y_('J4',_'J3',_'M4')
 <= 99992
_C15: X_('J2',_'M1') - X_('J5',_'M1') + 100000 Y_('J2',_'J5',_'M1') <= 99984
_C150: X_('J3',_'M4') - X_('J4',_'M4') - 100000 Y_('J4',_'J3',_'M4') <= -14
_C151: X_('J4',_'M4') - X_('J5',_'M4') + 100000 Y_('J4',_'J5',_'M4') <= 99992
_C152: - X_('J4',_'M4') + X_('J5',_'M4') - 100000 Y_('J4',_'J5',_'M4') <= -6
_C153: - X_('J1',_'M4') + X_('J5',_'M4') + 100000 Y_('J5',_'J1',_'M4')
 <= 99994
_C154: X_('J1',_'M4') - X_('J5',_'M4') - 100000 Y_('J5',_'J1',_'M4') <= -18
_C155: - X_('J2',_'M4') + X_('J5',_'M4') + 100000 Y_('J5',_'J2',_'M4')
 <= 99994
_C156: X_('J2',_'M4') - X_('J5',_'M4') - 100000 Y_('J5',_'J2',_'M4') <= 0
_C157: - X_('J3',_'M4') + X_('J5',_'M4') + 100000 Y_('J5',_'J3',_'M4')
 <= 99994
_C158: X_('J3',_'M4') - X_('J5',_'M4') - 100000 Y_('J5',_'J3',_'M4') <= -14
_C159: - X_('J4',_'M4') + X_('J5',_'M4') + 100000 Y_('J5',_'J4',_'M4')
 <= 99994
_C16: - X_('J2',_'M1') + X_('J5',_'M1') - 100000 Y_('J2',_'J5',_'M1') <= -10
_C160: X_('J4',_'M4') - X_('J5',_'M4') - 100000 Y_('J5',_'J4',_'M4') <= -8
_C161: X_('J1',_'M5') - X_('J2',_'M5') + 100000 Y_('J1',_'J2',_'M5') <= 99993
_C162: - X_('J1',_'M5') + X_('J2',_'M5') - 100000 Y_('J1',_'J2',_'M5') <= -14
_C163: X_('J1',_'M5') - X_('J3',_'M5') + 100000 Y_('J1',_'J3',_'M5') <= 99993
_C164: - X_('J1',_'M5') + X_('J3',_'M5') - 100000 Y_('J1',_'J3',_'M5') <= -8
_C165: X_('J1',_'M5') - X_('J4',_'M5') + 100000 Y_('J1',_'J4',_'M5') <= 99993
_C166: - X_('J1',_'M5') + X_('J4',_'M5') - 100000 Y_('J1',_'J4',_'M5') <= -9
_C167: X_('J1',_'M5') - X_('J5',_'M5') + 100000 Y_('J1',_'J5',_'M5') <= 99993
_C168: - X_('J1',_'M5') + X_('J5',_'M5') - 100000 Y_('J1',_'J5',_'M5') <= -13
_C169: - X_('J1',_'M5') + X_('J2',_'M5') + 100000 Y_('J2',_'J1',_'M5')
 <= 99986
_C17: - X_('J1',_'M1') + X_('J3',_'M1') + 100000 Y_('J3',_'J1',_'M1') <= 99997
_C170: X_('J1',_'M5') - X_('J2',_'M5') - 100000 Y_('J2',_'J1',_'M5') <= -7
_C171: X_('J2',_'M5') - X_('J3',_'M5') + 100000 Y_('J2',_'J3',_'M5') <= 99986
_C172: - X_('J2',_'M5') + X_('J3',_'M5') - 100000 Y_('J2',_'J3',_'M5') <= -8
_C173: X_('J2',_'M5') - X_('J4',_'M5') + 100000 Y_('J2',_'J4',_'M5') <= 99986
_C174: - X_('J2',_'M5') + X_('J4',_'M5') - 100000 Y_('J2',_'J4',_'M5') <= -9
_C175: X_('J2',_'M5') - X_('J5',_'M5') + 100000 Y_('J2',_'J5',_'M5') <= 99986
_C176: - X_('J2',_'M5') + X_('J5',_'M5') - 100000 Y_('J2',_'J5',_'M5') <= -13
_C177: - X_('J1',_'M5') + X_('J3',_'M5') + 100000 Y_('J3',_'J1',_'M5')
 <= 99992
_C178: X_('J1',_'M5') - X_('J3',_'M5') - 100000 Y_('J3',_'J1',_'M5') <= -7
_C179: - X_('J2',_'M5') + X_('J3',_'M5') + 100000 Y_('J3',_'J2',_'M5')
 <= 99992
_C18: X_('J1',_'M1') - X_('J3',_'M1') - 100000 Y_('J3',_'J1',_'M1') <= -12
_C180: X_('J2',_'M5') - X_('J3',_'M5') - 100000 Y_('J3',_'J2',_'M5') <= -14
_C181: X_('J3',_'M5') - X_('J4',_'M5') + 100000 Y_('J3',_'J4',_'M5') <= 99992
_C182: - X_('J3',_'M5') + X_('J4',_'M5') - 100000 Y_('J3',_'J4',_'M5') <= -9
_C183: X_('J3',_'M5') - X_('J5',_'M5') + 100000 Y_('J3',_'J5',_'M5') <= 99992
_C184: - X_('J3',_'M5') + X_('J5',_'M5') - 100000 Y_('J3',_'J5',_'M5') <= -13
_C185: - X_('J1',_'M5') + X_('J4',_'M5') + 100000 Y_('J4',_'J1',_'M5')
 <= 99991
_C186: X_('J1',_'M5') - X_('J4',_'M5') - 100000 Y_('J4',_'J1',_'M5') <= -7
_C187: - X_('J2',_'M5') + X_('J4',_'M5') + 100000 Y_('J4',_'J2',_'M5')
 <= 99991
_C188: X_('J2',_'M5') - X_('J4',_'M5') - 100000 Y_('J4',_'J2',_'M5') <= -14
_C189: - X_('J3',_'M5') + X_('J4',_'M5') + 100000 Y_('J4',_'J3',_'M5')
 <= 99991
_C19: - X_('J2',_'M1') + X_('J3',_'M1') + 100000 Y_('J3',_'J2',_'M1') <= 99997
_C190: X_('J3',_'M5') - X_('J4',_'M5') - 100000 Y_('J4',_'J3',_'M5') <= -8
_C191: X_('J4',_'M5') - X_('J5',_'M5') + 100000 Y_('J4',_'J5',_'M5') <= 99991
_C192: - X_('J4',_'M5') + X_('J5',_'M5') - 100000 Y_('J4',_'J5',_'M5') <= -13
_C193: - X_('J1',_'M5') + X_('J5',_'M5') + 100000 Y_('J5',_'J1',_'M5')
 <= 99987
_C194: X_('J1',_'M5') - X_('J5',_'M5') - 100000 Y_('J5',_'J1',_'M5') <= -7
_C195: - X_('J2',_'M5') + X_('J5',_'M5') + 100000 Y_('J5',_'J2',_'M5')
 <= 99987
_C196: X_('J2',_'M5') - X_('J5',_'M5') - 100000 Y_('J5',_'J2',_'M5') <= -14
_C197: - X_('J3',_'M5') + X_('J5',_'M5') + 100000 Y_('J5',_'J3',_'M5')
 <= 99987
_C198: X_('J3',_'M5') - X_('J5',_'M5') - 100000 Y_('J5',_'J3',_'M5') <= -8
_C199: - X_('J4',_'M5') + X_('J5',_'M5') + 100000 Y_('J5',_'J4',_'M5')
 <= 99987
_C2: - X_('J1',_'M1') + X_('J2',_'M1') - 100000 Y_('J1',_'J2',_'M1') <= -16
_C20: X_('J2',_'M1') - X_('J3',_'M1') - 100000 Y_('J3',_'J2',_'M1') <= -16
_C200: X_('J4',_'M5') - X_('J5',_'M5') - 100000 Y_('J5',_'J4',_'M5') <= -9
_C201: X_('J1',_'M6') - X_('J2',_'M6') + 100000 Y_('J1',_'J2',_'M6') <= 99988
_C202: - X_('J1',_'M6') + X_('J2',_'M6') - 100000 Y_('J1',_'J2',_'M6') <= -9
_C203: X_('J1',_'M6') - X_('J3',_'M6') + 100000 Y_('J1',_'J3',_'M6') <= 99988
_C204: - X_('J1',_'M6') + X_('J3',_'M6') - 100000 Y_('J1',_'J3',_'M6') <= -14
_C205: X_('J1',_'M6') - X_('J4',_'M6') + 100000 Y_('J1',_'J4',_'M6') <= 99988
_C206: - X_('J1',_'M6') + X_('J4',_'M6') - 100000 Y_('J1',_'J4',_'M6') <= -15
_C207: X_('J1',_'M6') - X_('J5',_'M6') + 100000 Y_('J1',_'J5',_'M6') <= 99988
_C208: - X_('J1',_'M6') + X_('J5',_'M6') - 100000 Y_('J1',_'J5',_'M6') <= 0
_C209: - X_('J1',_'M6') + X_('J2',_'M6') + 100000 Y_('J2',_'J1',_'M6')
 <= 99991
_C21: X_('J3',_'M1') - X_('J4',_'M1') + 100000 Y_('J3',_'J4',_'M1') <= 99997
_C210: X_('J1',_'M6') - X_('J2',_'M6') - 100000 Y_('J2',_'J1',_'M6') <= -12
_C211: X_('J2',_'M6') - X_('J3',_'M6') + 100000 Y_('J2',_'J3',_'M6') <= 99991
_C212: - X_('J2',_'M6') + X_('J3',_'M6') - 100000 Y_('J2',_'J3',_'M6') <= -14
_C213: X_('J2',_'M6') - X_('J4',_'M6') + 100000 Y_('J2',_'J4',_'M6') <= 99991
_C214: - X_('J2',_'M6') + X_('J4',_'M6') - 100000 Y_('J2',_'J4',_'M6') <= -15
_C215: X_('J2',_'M6') - X_('J5',_'M6') + 100000 Y_('J2',_'J5',_'M6') <= 99991
_C216: - X_('J2',_'M6') + X_('J5',_'M6') - 100000 Y_('J2',_'J5',_'M6') <= 0
_C217: - X_('J1',_'M6') + X_('J3',_'M6') + 100000 Y_('J3',_'J1',_'M6')
 <= 99986
_C218: X_('J1',_'M6') - X_('J3',_'M6') - 100000 Y_('J3',_'J1',_'M6') <= -12
_C219: - X_('J2',_'M6') + X_('J3',_'M6') + 100000 Y_('J3',_'J2',_'M6')
 <= 99986
_C22: - X_('J3',_'M1') + X_('J4',_'M1') - 100000 Y_('J3',_'J4',_'M1') <= -15
_C220: X_('J2',_'M6') - X_('J3',_'M6') - 100000 Y_('J3',_'J2',_'M6') <= -9
_C221: X_('J3',_'M6') - X_('J4',_'M6') + 100000 Y_('J3',_'J4',_'M6') <= 99986
_C222: - X_('J3',_'M6') + X_('J4',_'M6') - 100000 Y_('J3',_'J4',_'M6') <= -15
_C223: X_('J3',_'M6') - X_('J5',_'M6') + 100000 Y_('J3',_'J5',_'M6') <= 99986
_C224: - X_('J3',_'M6') + X_('J5',_'M6') - 100000 Y_('J3',_'J5',_'M6') <= 0
_C225: - X_('J1',_'M6') + X_('J4',_'M6') + 100000 Y_('J4',_'J1',_'M6')
 <= 99985
_C226: X_('J1',_'M6') - X_('J4',_'M6') - 100000 Y_('J4',_'J1',_'M6') <= -12
_C227: - X_('J2',_'M6') + X_('J4',_'M6') + 100000 Y_('J4',_'J2',_'M6')
 <= 99985
_C228: X_('J2',_'M6') - X_('J4',_'M6') - 100000 Y_('J4',_'J2',_'M6') <= -9
_C229: - X_('J3',_'M6') + X_('J4',_'M6') + 100000 Y_('J4',_'J3',_'M6')
 <= 99985
_C23: X_('J3',_'M1') - X_('J5',_'M1') + 100000 Y_('J3',_'J5',_'M1') <= 99997
_C230: X_('J3',_'M6') - X_('J4',_'M6') - 100000 Y_('J4',_'J3',_'M6') <= -14
_C231: X_('J4',_'M6') - X_('J5',_'M6') + 100000 Y_('J4',_'J5',_'M6') <= 99985
_C232: - X_('J4',_'M6') + X_('J5',_'M6') - 100000 Y_('J4',_'J5',_'M6') <= 0
_C233: - X_('J1',_'M6') + X_('J5',_'M6') + 100000 Y_('J5',_'J1',_'M6')
 <= 100000
_C234: X_('J1',_'M6') - X_('J5',_'M6') - 100000 Y_('J5',_'J1',_'M6') <= -12
_C235: - X_('J2',_'M6') + X_('J5',_'M6') + 100000 Y_('J5',_'J2',_'M6')
 <= 100000
_C236: X_('J2',_'M6') - X_('J5',_'M6') - 100000 Y_('J5',_'J2',_'M6') <= -9
_C237: - X_('J3',_'M6') + X_('J5',_'M6') + 100000 Y_('J5',_'J3',_'M6')
 <= 100000
_C238: X_('J3',_'M6') - X_('J5',_'M6') - 100000 Y_('J5',_'J3',_'M6') <= -14
_C239: - X_('J4',_'M6') + X_('J5',_'M6') + 100000 Y_('J5',_'J4',_'M6')
 <= 100000
_C24: - X_('J3',_'M1') + X_('J5',_'M1') - 100000 Y_('J3',_'J5',_'M1') <= -10
_C240: X_('J4',_'M6') - X_('J5',_'M6') - 100000 Y_('J5',_'J4',_'M6') <= -15
_C241: X_('J1',_'M7') - X_('J2',_'M7') + 100000 Y_('J1',_'J2',_'M7') <= 99988
_C242: - X_('J1',_'M7') + X_('J2',_'M7') - 100000 Y_('J1',_'J2',_'M7') <= -6
_C243: X_('J1',_'M7') - X_('J3',_'M7') + 100000 Y_('J1',_'J3',_'M7') <= 99988
_C244: - X_('J1',_'M7') + X_('J3',_'M7') - 100000 Y_('J1',_'J3',_'M7') <= -14
_C245: X_('J1',_'M7') - X_('J4',_'M7') + 100000 Y_('J1',_'J4',_'M7') <= 99988
_C246: - X_('J1',_'M7') + X_('J4',_'M7') - 100000 Y_('J1',_'J4',_'M7') <= -16
_C247: X_('J1',_'M7') - X_('J5',_'M7') + 100000 Y_('J1',_'J5',_'M7') <= 99988
_C248: - X_('J1',_'M7') + X_('J5',_'M7') - 100000 Y_('J1',_'J5',_'M7') <= -11
_C249: - X_('J1',_'M7') + X_('J2',_'M7') + 100000 Y_('J2',_'J1',_'M7')
 <= 99994
_C25: - X_('J1',_'M1') + X_('J4',_'M1') + 100000 Y_('J4',_'J1',_'M1') <= 99985
_C250: X_('J1',_'M7') - X_('J2',_'M7') - 100000 Y_('J2',_'J1',_'M7') <= -12
_C251: X_('J2',_'M7') - X_('J3',_'M7') + 100000 Y_('J2',_'J3',_'M7') <= 99994
_C252: - X_('J2',_'M7') + X_('J3',_'M7') - 100000 Y_('J2',_'J3',_'M7') <= -14
_C253: X_('J2',_'M7') - X_('J4',_'M7') + 100000 Y_('J2',_'J4',_'M7') <= 99994
_C254: - X_('J2',_'M7') + X_('J4',_'M7') - 100000 Y_('J2',_'J4',_'M7') <= -16
_C255: X_('J2',_'M7') - X_('J5',_'M7') + 100000 Y_('J2',_'J5',_'M7') <= 99994
_C256: - X_('J2',_'M7') + X_('J5',_'M7') - 100000 Y_('J2',_'J5',_'M7') <= -11
_C257: - X_('J1',_'M7') + X_('J3',_'M7') + 100000 Y_('J3',_'J1',_'M7')
 <= 99986
_C258: X_('J1',_'M7') - X_('J3',_'M7') - 100000 Y_('J3',_'J1',_'M7') <= -12
_C259: - X_('J2',_'M7') + X_('J3',_'M7') + 100000 Y_('J3',_'J2',_'M7')
 <= 99986
_C26: X_('J1',_'M1') - X_('J4',_'M1') - 100000 Y_('J4',_'J1',_'M1') <= -12
_C260: X_('J2',_'M7') - X_('J3',_'M7') - 100000 Y_('J3',_'J2',_'M7') <= -6
_C261: X_('J3',_'M7') - X_('J4',_'M7') + 100000 Y_('J3',_'J4',_'M7') <= 99986
_C262: - X_('J3',_'M7') + X_('J4',_'M7') - 100000 Y_('J3',_'J4',_'M7') <= -16
_C263: X_('J3',_'M7') - X_('J5',_'M7') + 100000 Y_('J3',_'J5',_'M7') <= 99986
_C264: - X_('J3',_'M7') + X_('J5',_'M7') - 100000 Y_('J3',_'J5',_'M7') <= -11
_C265: - X_('J1',_'M7') + X_('J4',_'M7') + 100000 Y_('J4',_'J1',_'M7')
 <= 99984
_C266: X_('J1',_'M7') - X_('J4',_'M7') - 100000 Y_('J4',_'J1',_'M7') <= -12
_C267: - X_('J2',_'M7') + X_('J4',_'M7') + 100000 Y_('J4',_'J2',_'M7')
 <= 99984
_C268: X_('J2',_'M7') - X_('J4',_'M7') - 100000 Y_('J4',_'J2',_'M7') <= -6
_C269: - X_('J3',_'M7') + X_('J4',_'M7') + 100000 Y_('J4',_'J3',_'M7')
 <= 99984
_C27: - X_('J2',_'M1') + X_('J4',_'M1') + 100000 Y_('J4',_'J2',_'M1') <= 99985
_C270: X_('J3',_'M7') - X_('J4',_'M7') - 100000 Y_('J4',_'J3',_'M7') <= -14
_C271: X_('J4',_'M7') - X_('J5',_'M7') + 100000 Y_('J4',_'J5',_'M7') <= 99984
_C272: - X_('J4',_'M7') + X_('J5',_'M7') - 100000 Y_('J4',_'J5',_'M7') <= -11
_C273: - X_('J1',_'M7') + X_('J5',_'M7') + 100000 Y_('J5',_'J1',_'M7')
 <= 99989
_C274: X_('J1',_'M7') - X_('J5',_'M7') - 100000 Y_('J5',_'J1',_'M7') <= -12
_C275: - X_('J2',_'M7') + X_('J5',_'M7') + 100000 Y_('J5',_'J2',_'M7')
 <= 99989
_C276: X_('J2',_'M7') - X_('J5',_'M7') - 100000 Y_('J5',_'J2',_'M7') <= -6
_C277: - X_('J3',_'M7') + X_('J5',_'M7') + 100000 Y_('J5',_'J3',_'M7')
 <= 99989
_C278: X_('J3',_'M7') - X_('J5',_'M7') - 100000 Y_('J5',_'J3',_'M7') <= -14
_C279: - X_('J4',_'M7') + X_('J5',_'M7') + 100000 Y_('J5',_'J4',_'M7')
 <= 99989
_C28: X_('J2',_'M1') - X_('J4',_'M1') - 100000 Y_('J4',_'J2',_'M1') <= -16
_C280: X_('J4',_'M7') - X_('J5',_'M7') - 100000 Y_('J5',_'J4',_'M7') <= -16
_C281: X_('J1',_'M1') - X_('J1',_'M2') <= -12
_C282: X_('J1',_'M2') - X_('J1',_'M4') <= -8
_C283: X_('J1',_'M4') - X_('J1',_'M5') <= -18
_C284: X_('J1',_'M5') - X_('J1',_'M6') <= -7
_C285: X_('J1',_'M6') - X_('J1',_'M7') <= -12
_C286: - X_('J2',_'M3') + X_('J2',_'M6') <= -9
_C287: X_('J2',_'M3') - X_('J2',_'M5') <= -6
_C288: X_('J2',_'M5') - X_('J2',_'M7') <= -14
_C289: - X_('J2',_'M2') + X_('J2',_'M7') <= -6
_C29: - X_('J3',_'M1') + X_('J4',_'M1') + 100000 Y_('J4',_'J3',_'M1') <= 99985
_C290: - X_('J2',_'M1') + X_('J2',_'M2') <= -11
_C291: X_('J3',_'M3') - X_('J3',_'M7') <= -12
_C292: - X_('J3',_'M6') + X_('J3',_'M7') <= -14
_C293: - X_('J3',_'M1') + X_('J3',_'M6') <= -14
_C294: X_('J3',_'M1') - X_('J3',_'M5') <= -3
_C295: - X_('J3',_'M4') + X_('J3',_'M5') <= -8
_C296: - X_('J4',_'M2') + X_('J4',_'M5') <= -9
_C297: X_('J4',_'M2') - X_('J4',_'M7') <= -13
_C298: - X_('J4',_'M4') + X_('J4',_'M7') <= -16
_C299: - X_('J4',_'M1') + X_('J4',_'M4') <= -8
_C3: X_('J1',_'M1') - X_('J3',_'M1') + 100000 Y_('J1',_'J3',_'M1') <= 99988
_C30: X_('J3',_'M1') - X_('J4',_'M1') - 100000 Y_('J4',_'J3',_'M1') <= -3
_C300: X_('J4',_'M1') - X_('J4',_'M6') <= -15
_C301: - X_('J5',_'M1') + X_('J5',_'M7') <= -11
_C302: X_('J5',_'M1') - X_('J5',_'M5') <= -10
_C303: - X_('J5',_'M3') + X_('J5',_'M5') <= -13
_C304: X_('J5',_'M3') - X_('J5',_'M4') <= -19
_C305: - X_('J5',_'M2') + X_('J5',_'M4') <= -6
_C31: X_('J4',_'M1') - X_('J5',_'M1') + 100000 Y_('J4',_'J5',_'M1') <= 99985
_C32: - X_('J4',_'M1') + X_('J5',_'M1') - 100000 Y_('J4',_'J5',_'M1') <= -10
_C33: - X_('J1',_'M1') + X_('J5',_'M1') + 100000 Y_('J5',_'J1',_'M1') <= 99990
_C34: X_('J1',_'M1') - X_('J5',_'M1') - 100000 Y_('J5',_'J1',_'M1') <= -12
_C35: - X_('J2',_'M1') + X_('J5',_'M1') + 100000 Y_('J5',_'J2',_'M1') <= 99990
_C36: X_('J2',_'M1') - X_('J5',_'M1') - 100000 Y_('J5',_'J2',_'M1') <= -16
_C37: - X_('J3',_'M1') + X_('J5',_'M1') + 100000 Y_('J5',_'J3',_'M1') <= 99990
_C38: X_('J3',_'M1') - X_('J5',_'M1') - 100000 Y_('J5',_'J3',_'M1') <= -3
_C39: - X_('J4',_'M1') + X_('J5',_'M1') + 100000 Y_('J5',_'J4',_'M1') <= 99990
_C4: - X_('J1',_'M1') + X_('J3',_'M1') - 100000 Y_('J1',_'J3',_'M1') <= -3
_C40: X_('J4',_'M1') - X_('J5',_'M1') - 100000 Y_('J5',_'J4',_'M1') <= -15
_C41: X_('J1',_'M2') - X_('J2',_'M2') + 100000 Y_('J1',_'J2',_'M2') <= 99992
_C42: - X_('J1',_'M2') + X_('J2',_'M2') - 100000 Y_('J1',_'J2',_'M2') <= -11
_C43: X_('J1',_'M2') - X_('J3',_'M2') + 100000 Y_('J1',_'J3',_'M2') <= 99992
_C44: - X_('J1',_'M2') + X_('J3',_'M2') - 100000 Y_('J1',_'J3',_'M2') <= 0
_C45: X_('J1',_'M2') - X_('J4',_'M2') + 100000 Y_('J1',_'J4',_'M2') <= 99992
_C46: - X_('J1',_'M2') + X_('J4',_'M2') - 100000 Y_('J1',_'J4',_'M2') <= -13
_C47: X_('J1',_'M2') - X_('J5',_'M2') + 100000 Y_('J1',_'J5',_'M2') <= 99992
_C48: - X_('J1',_'M2') + X_('J5',_'M2') - 100000 Y_('J1',_'J5',_'M2') <= -15
_C49: - X_('J1',_'M2') + X_('J2',_'M2') + 100000 Y_('J2',_'J1',_'M2') <= 99989
_C5: X_('J1',_'M1') - X_('J4',_'M1') + 100000 Y_('J1',_'J4',_'M1') <= 99988
_C50: X_('J1',_'M2') - X_('J2',_'M2') - 100000 Y_('J2',_'J1',_'M2') <= -8
_C51: X_('J2',_'M2') - X_('J3',_'M2') + 100000 Y_('J2',_'J3',_'M2') <= 99989
_C52: - X_('J2',_'M2') + X_('J3',_'M2') - 100000 Y_('J2',_'J3',_'M2') <= 0
_C53: X_('J2',_'M2') - X_('J4',_'M2') + 100000 Y_('J2',_'J4',_'M2') <= 99989
_C54: - X_('J2',_'M2') + X_('J4',_'M2') - 100000 Y_('J2',_'J4',_'M2') <= -13
_C55: X_('J2',_'M2') - X_('J5',_'M2') + 100000 Y_('J2',_'J5',_'M2') <= 99989
_C56: - X_('J2',_'M2') + X_('J5',_'M2') - 100000 Y_('J2',_'J5',_'M2') <= -15
_C57: - X_('J1',_'M2') + X_('J3',_'M2') + 100000 Y_('J3',_'J1',_'M2')
 <= 100000
_C58: X_('J1',_'M2') - X_('J3',_'M2') - 100000 Y_('J3',_'J1',_'M2') <= -8
_C59: - X_('J2',_'M2') + X_('J3',_'M2') + 100000 Y_('J3',_'J2',_'M2')
 <= 100000
_C6: - X_('J1',_'M1') + X_('J4',_'M1') - 100000 Y_('J1',_'J4',_'M1') <= -15
_C60: X_('J2',_'M2') - X_('J3',_'M2') - 100000 Y_('J3',_'J2',_'M2') <= -11
_C61: X_('J3',_'M2') - X_('J4',_'M2') + 100000 Y_('J3',_'J4',_'M2') <= 100000
_C62: - X_('J3',_'M2') + X_('J4',_'M2') - 100000 Y_('J3',_'J4',_'M2') <= -13
_C63: X_('J3',_'M2') - X_('J5',_'M2') + 100000 Y_('J3',_'J5',_'M2') <= 100000
_C64: - X_('J3',_'M2') + X_('J5',_'M2') - 100000 Y_('J3',_'J5',_'M2') <= -15
_C65: - X_('J1',_'M2') + X_('J4',_'M2') + 100000 Y_('J4',_'J1',_'M2') <= 99987
_C66: X_('J1',_'M2') - X_('J4',_'M2') - 100000 Y_('J4',_'J1',_'M2') <= -8
_C67: - X_('J2',_'M2') + X_('J4',_'M2') + 100000 Y_('J4',_'J2',_'M2') <= 99987
_C68: X_('J2',_'M2') - X_('J4',_'M2') - 100000 Y_('J4',_'J2',_'M2') <= -11
_C69: - X_('J3',_'M2') + X_('J4',_'M2') + 100000 Y_('J4',_'J3',_'M2') <= 99987
_C7: X_('J1',_'M1') - X_('J5',_'M1') + 100000 Y_('J1',_'J5',_'M1') <= 99988
_C70: X_('J3',_'M2') - X_('J4',_'M2') - 100000 Y_('J4',_'J3',_'M2') <= 0
_C71: X_('J4',_'M2') - X_('J5',_'M2') + 100000 Y_('J4',_'J5',_'M2') <= 99987
_C72: - X_('J4',_'M2') + X_('J5',_'M2') - 100000 Y_('J4',_'J5',_'M2') <= -15
_C73: - X_('J1',_'M2') + X_('J5',_'M2') + 100000 Y_('J5',_'J1',_'M2') <= 99985
_C74: X_('J1',_'M2') - X_('J5',_'M2') - 100000 Y_('J5',_'J1',_'M2') <= -8
_C75: - X_('J2',_'M2') + X_('J5',_'M2') + 100000 Y_('J5',_'J2',_'M2') <= 99985
_C76: X_('J2',_'M2') - X_('J5',_'M2') - 100000 Y_('J5',_'J2',_'M2') <= -11
_C77: - X_('J3',_'M2') + X_('J5',_'M2') + 100000 Y_('J5',_'J3',_'M2') <= 99985
_C78: X_('J3',_'M2') - X_('J5',_'M2') - 100000 Y_('J5',_'J3',_'M2') <= 0
_C79: - X_('J4',_'M2') + X_('J5',_'M2') + 100000 Y_('J5',_'J4',_'M2') <= 99985
_C8: - X_('J1',_'M1') + X_('J5',_'M1') - 100000 Y_('J1',_'J5',_'M1') <= -10
_C80: X_('J4',_'M2') - X_('J5',_'M2') - 100000 Y_('J5',_'J4',_'M2') <= -13
_C81: X_('J1',_'M3') - X_('J2',_'M3') + 100000 Y_('J1',_'J2',_'M3') <= 100000
_C82: - X_('J1',_'M3') + X_('J2',_'M3') - 100000 Y_('J1',_'J2',_'M3') <= -6
_C83: X_('J1',_'M3') - X_('J3',_'M3') + 100000 Y_('J1',_'J3',_'M3') <= 100000
_C84: - X_('J1',_'M3') + X_('J3',_'M3') - 100000 Y_('J1',_'J3',_'M3') <= -12
_C85: X_('J1',_'M3') - X_('J4',_'M3') + 100000 Y_('J1',_'J4',_'M3') <= 100000
_C86: - X_('J1',_'M3') + X_('J4',_'M3') - 100000 Y_('J1',_'J4',_'M3') <= 0
_C87: X_('J1',_'M3') - X_('J5',_'M3') + 100000 Y_('J1',_'J5',_'M3') <= 100000
_C88: - X_('J1',_'M3') + X_('J5',_'M3') - 100000 Y_('J1',_'J5',_'M3') <= -19
_C89: - X_('J1',_'M3') + X_('J2',_'M3') + 100000 Y_('J2',_'J1',_'M3') <= 99994
_C9: - X_('J1',_'M1') + X_('J2',_'M1') + 100000 Y_('J2',_'J1',_'M1') <= 99984
_C90: X_('J1',_'M3') - X_('J2',_'M3') - 100000 Y_('J2',_'J1',_'M3') <= 0
_C91: X_('J2',_'M3') - X_('J3',_'M3') + 100000 Y_('J2',_'J3',_'M3') <= 99994
_C92: - X_('J2',_'M3') + X_('J3',_'M3') - 100000 Y_('J2',_'J3',_'M3') <= -12
_C93: X_('J2',_'M3') - X_('J4',_'M3') + 100000 Y_('J2',_'J4',_'M3') <= 99994
_C94: - X_('J2',_'M3') + X_('J4',_'M3') - 100000 Y_('J2',_'J4',_'M3') <= 0
_C95: X_('J2',_'M3') - X_('J5',_'M3') + 100000 Y_('J2',_'J5',_'M3') <= 99994
_C96: - X_('J2',_'M3') + X_('J5',_'M3') - 100000 Y_('J2',_'J5',_'M3') <= -19
_C97: - X_('J1',_'M3') + X_('J3',_'M3') + 100000 Y_('J3',_'J1',_'M3') <= 99988
_C98: X_('J1',_'M3') - X_('J3',_'M3') - 100000 Y_('J3',_'J1',_'M3') <= 0
_C99: - X_('J2',_'M3') + X_('J3',_'M3') + 100000 Y_('J3',_'J2',_'M3') <= 99988
Bounds
 X_('J1',_'M1') <= 1
 X_('J1',_'M2') <= 1
 X_('J1',_'M3') <= 1
 X_('J1',_'M4') <= 1
 X_('J1',_'M5') <= 1
 X_('J1',_'M6') <= 1
 X_('J1',_'M7') <= 1
 X_('J2',_'M1') <= 1
 X_('J2',_'M2') <= 1
 X_('J2',_'M3') <= 1
 X_('J2',_'M4') <= 1
 X_('J2',_'M5') <= 1
 X_('J2',_'M6') <= 1
 X_('J2',_'M7') <= 1
 X_('J3',_'M1') <= 1
 X_('J3',_'M2') <= 1
 X_('J3',_'M3') <= 1
 X_('J3',_'M4') <= 1
 X_('J3',_'M5') <= 1
 X_('J3',_'M6') <= 1
 X_('J3',_'M7') <= 1
 X_('J4',_'M1') <= 1
 X_('J4',_'M2') <= 1
 X_('J4',_'M3') <= 1
 X_('J4',_'M4') <= 1
 X_('J4',_'M5') <= 1
 X_('J4',_'M6') <= 1
 X_('J4',_'M7') <= 1
 X_('J5',_'M1') <= 1
 X_('J5',_'M2') <= 1
 X_('J5',_'M3') <= 1
 X_('J5',_'M4') <= 1
 X_('J5',_'M5') <= 1
 X_('J5',_'M6') <= 1
 X_('J5',_'M7') <= 1
Binaries
Y_('J1',_'J2',_'M1')
Y_('J1',_'J2',_'M2')
Y_('J1',_'J2',_'M3')
Y_('J1',_'J2',_'M4')
Y_('J1',_'J2',_'M5')
Y_('J1',_'J2',_'M6')
Y_('J1',_'J2',_'M7')
Y_('J1',_'J3',_'M1')
Y_('J1',_'J3',_'M2')
Y_('J1',_'J3',_'M3')
Y_('J1',_'J3',_'M4')
Y_('J1',_'J3',_'M5')
Y_('J1',_'J3',_'M6')
Y_('J1',_'J3',_'M7')
Y_('J1',_'J4',_'M1')
Y_('J1',_'J4',_'M2')
Y_('J1',_'J4',_'M3')
Y_('J1',_'J4',_'M4')
Y_('J1',_'J4',_'M5')
Y_('J1',_'J4',_'M6')
Y_('J1',_'J4',_'M7')
Y_('J1',_'J5',_'M1')
Y_('J1',_'J5',_'M2')
Y_('J1',_'J5',_'M3')
Y_('J1',_'J5',_'M4')
Y_('J1',_'J5',_'M5')
Y_('J1',_'J5',_'M6')
Y_('J1',_'J5',_'M7')
Y_('J2',_'J1',_'M1')
Y_('J2',_'J1',_'M2')
Y_('J2',_'J1',_'M3')
Y_('J2',_'J1',_'M4')
Y_('J2',_'J1',_'M5')
Y_('J2',_'J1',_'M6')
Y_('J2',_'J1',_'M7')
Y_('J2',_'J3',_'M1')
Y_('J2',_'J3',_'M2')
Y_('J2',_'J3',_'M3')
Y_('J2',_'J3',_'M4')
Y_('J2',_'J3',_'M5')
Y_('J2',_'J3',_'M6')
Y_('J2',_'J3',_'M7')
Y_('J2',_'J4',_'M1')
Y_('J2',_'J4',_'M2')
Y_('J2',_'J4',_'M3')
Y_('J2',_'J4',_'M4')
Y_('J2',_'J4',_'M5')
Y_('J2',_'J4',_'M6')
Y_('J2',_'J4',_'M7')
Y_('J2',_'J5',_'M1')
Y_('J2',_'J5',_'M2')
Y_('J2',_'J5',_'M3')
Y_('J2',_'J5',_'M4')
Y_('J2',_'J5',_'M5')
Y_('J2',_'J5',_'M6')
Y_('J2',_'J5',_'M7')
Y_('J3',_'J1',_'M1')
Y_('J3',_'J1',_'M2')
Y_('J3',_'J1',_'M3')
Y_('J3',_'J1',_'M4')
Y_('J3',_'J1',_'M5')
Y_('J3',_'J1',_'M6')
Y_('J3',_'J1',_'M7')
Y_('J3',_'J2',_'M1')
Y_('J3',_'J2',_'M2')
Y_('J3',_'J2',_'M3')
Y_('J3',_'J2',_'M4')
Y_('J3',_'J2',_'M5')
Y_('J3',_'J2',_'M6')
Y_('J3',_'J2',_'M7')
Y_('J3',_'J4',_'M1')
Y_('J3',_'J4',_'M2')
Y_('J3',_'J4',_'M3')
Y_('J3',_'J4',_'M4')
Y_('J3',_'J4',_'M5')
Y_('J3',_'J4',_'M6')
Y_('J3',_'J4',_'M7')
Y_('J3',_'J5',_'M1')
Y_('J3',_'J5',_'M2')
Y_('J3',_'J5',_'M3')
Y_('J3',_'J5',_'M4')
Y_('J3',_'J5',_'M5')
Y_('J3',_'J5',_'M6')
Y_('J3',_'J5',_'M7')
Y_('J4',_'J1',_'M1')
Y_('J4',_'J1',_'M2')
Y_('J4',_'J1',_'M3')
Y_('J4',_'J1',_'M4')
Y_('J4',_'J1',_'M5')
Y_('J4',_'J1',_'M6')
Y_('J4',_'J1',_'M7')
Y_('J4',_'J2',_'M1')
Y_('J4',_'J2',_'M2')
Y_('J4',_'J2',_'M3')
Y_('J4',_'J2',_'M4')
Y_('J4',_'J2',_'M5')
Y_('J4',_'J2',_'M6')
Y_('J4',_'J2',_'M7')
Y_('J4',_'J3',_'M1')
Y_('J4',_'J3',_'M2')
Y_('J4',_'J3',_'M3')
Y_('J4',_'J3',_'M4')
Y_('J4',_'J3',_'M5')
Y_('J4',_'J3',_'M6')
Y_('J4',_'J3',_'M7')
Y_('J4',_'J5',_'M1')
Y_('J4',_'J5',_'M2')
Y_('J4',_'J5',_'M3')
Y_('J4',_'J5',_'M4')
Y_('J4',_'J5',_'M5')
Y_('J4',_'J5',_'M6')
Y_('J4',_'J5',_'M7')
Y_('J5',_'J1',_'M1')
Y_('J5',_'J1',_'M2')
Y_('J5',_'J1',_'M3')
Y_('J5',_'J1',_'M4')
Y_('J5',_'J1',_'M5')
Y_('J5',_'J1',_'M6')
Y_('J5',_'J1',_'M7')
Y_('J5',_'J2',_'M1')
Y_('J5',_'J2',_'M2')
Y_('J5',_'J2',_'M3')
Y_('J5',_'J2',_'M4')
Y_('J5',_'J2',_'M5')
Y_('J5',_'J2',_'M6')
Y_('J5',_'J2',_'M7')
Y_('J5',_'J3',_'M1')
Y_('J5',_'J3',_'M2')
Y_('J5',_'J3',_'M3')
Y_('J5',_'J3',_'M4')
Y_('J5',_'J3',_'M5')
Y_('J5',_'J3',_'M6')
Y_('J5',_'J3',_'M7')
Y_('J5',_'J4',_'M1')
Y_('J5',_'J4',_'M2')
Y_('J5',_'J4',_'M3')
Y_('J5',_'J4',_'M4')
Y_('J5',_'J4',_'M5')
Y_('J5',_'J4',_'M6')
Y_('J5',_'J4',_'M7')
End
